NAME          DCAP_2_4_3_500_SS495
ROWS
 N  OBJ
 L  CON1
 L  CON2
 L  CON3
 L  CON4
 L  CON5
 L  CON6
 L  CON7
 L  CON8
 L  CON9
 L  CON10
 L  CON11
 L  CON12
 E  CON13
 E  CON14
 E  CON15
 E  CON16
 E  CON17
 E  CON18
 E  CON19
 E  CON20
 E  CON21
 E  CON22
 E  CON23
 E  CON24
COLUMNS
    x[1,1]    OBJ       6.180167      CON1      1.000000    
    x[1,1]    CON7      -1.000000     CON8      -1.000000   
    x[1,1]    CON9      -1.000000   
    x[1,2]    OBJ       6.563535      CON2      1.000000    
    x[1,2]    CON8      -1.000000     CON9      -1.000000   
    x[1,3]    OBJ       7.443064      CON3      1.000000    
    x[1,3]    CON9      -1.000000   
    x[2,1]    OBJ       6.732585      CON4      1.000000    
    x[2,1]    CON10     -1.000000     CON11     -1.000000   
    x[2,1]    CON12     -1.000000   
    x[2,2]    OBJ       5.039546      CON5      1.000000    
    x[2,2]    CON11     -1.000000     CON12     -1.000000   
    x[2,3]    OBJ       6.054841      CON6      1.000000    
    x[2,3]    CON12     -1.000000   
    MARKER    'MARKER'                'INTORG'
    u[1,1]    OBJ       48.076654     CON1      -1.000000   
    u[1,2]    OBJ       20.066487     CON2      -1.000000   
    u[1,3]    OBJ       32.230043     CON3      -1.000000   
    u[2,1]    OBJ       49.996186     CON4      -1.000000   
    u[2,2]    OBJ       49.466655     CON5      -1.000000   
    u[2,3]    OBJ       27.484319     CON6      -1.000000   
    y[1,1,1]  OBJ       9.958577      CON7      1.045979    
    y[1,1,1]  CON13     1.000000    
    y[1,1,2]  OBJ       6.437401      CON8      0.837266    
    y[1,1,2]  CON14     1.000000    
    y[1,1,3]  OBJ       6.682132      CON9      1.085643    
    y[1,1,3]  CON15     1.000000    
    y[1,2,1]  OBJ       8.449279      CON7      1.442770    
    y[1,2,1]  CON16     1.000000    
    y[1,2,2]  OBJ       6.818795      CON8      0.907236    
    y[1,2,2]  CON17     1.000000    
    y[1,2,3]  OBJ       6.232537      CON9      1.097836    
    y[1,2,3]  CON18     1.000000    
    y[1,3,1]  OBJ       5.392123      CON7      0.782596    
    y[1,3,1]  CON19     1.000000    
    y[1,3,2]  OBJ       6.883111      CON8      1.012265    
    y[1,3,2]  CON20     1.000000    
    y[1,3,3]  OBJ       9.452048      CON9      1.278677    
    y[1,3,3]  CON21     1.000000    
    y[1,4,1]  OBJ       7.614124      CON7      1.379253    
    y[1,4,1]  CON22     1.000000    
    y[1,4,2]  OBJ       9.136395      CON8      1.195286    
    y[1,4,2]  CON23     1.000000    
    y[1,4,3]  OBJ       7.771622      CON9      0.924888    
    y[1,4,3]  CON24     1.000000    
    y[2,1,1]  OBJ       8.413056      CON10     1.045979    
    y[2,1,1]  CON13     1.000000    
    y[2,1,2]  OBJ       9.584318      CON11     0.837266    
    y[2,1,2]  CON14     1.000000    
    y[2,1,3]  OBJ       8.803100      CON12     1.085643    
    y[2,1,3]  CON15     1.000000    
    y[2,2,1]  OBJ       9.909489      CON10     1.442770    
    y[2,2,1]  CON16     1.000000    
    y[2,2,2]  OBJ       6.490972      CON11     0.907236    
    y[2,2,2]  CON17     1.000000    
    y[2,2,3]  OBJ       6.397872      CON12     1.097836    
    y[2,2,3]  CON18     1.000000    
    y[2,3,1]  OBJ       7.076382      CON10     0.782596    
    y[2,3,1]  CON19     1.000000    
    y[2,3,2]  OBJ       8.259160      CON11     1.012265    
    y[2,3,2]  CON20     1.000000    
    y[2,3,3]  OBJ       7.928167      CON12     1.278677    
    y[2,3,3]  CON21     1.000000    
    y[2,4,1]  OBJ       6.945468      CON10     1.379253    
    y[2,4,1]  CON22     1.000000    
    y[2,4,2]  OBJ       5.549520      CON11     1.195286    
    y[2,4,2]  CON23     1.000000    
    y[2,4,3]  OBJ       8.464984      CON12     0.924888    
    y[2,4,3]  CON24     1.000000    
    z[1,1]    OBJ       635.083110    CON13     1.000000    
    z[1,2]    OBJ       564.052640    CON14     1.000000    
    z[1,3]    OBJ       715.991497    CON15     1.000000    
    z[2,1]    OBJ       947.837813    CON16     1.000000    
    z[2,2]    OBJ       769.131798    CON17     1.000000    
    z[2,3]    OBJ       644.345169    CON18     1.000000    
    z[3,1]    OBJ       508.885934    CON19     1.000000    
    z[3,2]    OBJ       928.427993    CON20     1.000000    
    z[3,3]    OBJ       782.298243    CON21     1.000000    
    z[4,1]    OBJ       835.105668    CON22     1.000000    
    z[4,2]    OBJ       971.767643    CON23     1.000000    
    z[4,3]    OBJ       860.891460    CON24     1.000000    
    MARKER    'MARKER'                 'INTEND'
RHS
    RHS       CON1      -0.000000     CON2      -0.000000   
    RHS       CON3      -0.000000     CON4      -0.000000   
    RHS       CON5      -0.000000     CON6      -0.000000   
    RHS       CON7      -0.000000     CON8      -0.000000   
    RHS       CON9      -0.000000     CON10     -0.000000   
    RHS       CON11     -0.000000     CON12     -0.000000   
    RHS       CON13     1.000000      CON14     1.000000    
    RHS       CON15     1.000000      CON16     1.000000    
    RHS       CON17     1.000000      CON18     1.000000    
    RHS       CON19     1.000000      CON20     1.000000    
    RHS       CON21     1.000000      CON22     1.000000    
    RHS       CON23     1.000000      CON24     1.000000    
BOUNDS
 BV BOUND     u[1,1]  
 BV BOUND     u[1,2]  
 BV BOUND     u[1,3]  
 BV BOUND     u[2,1]  
 BV BOUND     u[2,2]  
 BV BOUND     u[2,3]  
 BV BOUND     y[1,1,1]
 BV BOUND     y[1,1,2]
 BV BOUND     y[1,1,3]
 BV BOUND     y[1,2,1]
 BV BOUND     y[1,2,2]
 BV BOUND     y[1,2,3]
 BV BOUND     y[1,3,1]
 BV BOUND     y[1,3,2]
 BV BOUND     y[1,3,3]
 BV BOUND     y[1,4,1]
 BV BOUND     y[1,4,2]
 BV BOUND     y[1,4,3]
 BV BOUND     y[2,1,1]
 BV BOUND     y[2,1,2]
 BV BOUND     y[2,1,3]
 BV BOUND     y[2,2,1]
 BV BOUND     y[2,2,2]
 BV BOUND     y[2,2,3]
 BV BOUND     y[2,3,1]
 BV BOUND     y[2,3,2]
 BV BOUND     y[2,3,3]
 BV BOUND     y[2,4,1]
 BV BOUND     y[2,4,2]
 BV BOUND     y[2,4,3]
 BV BOUND     z[1,1]  
 BV BOUND     z[1,2]  
 BV BOUND     z[1,3]  
 BV BOUND     z[2,1]  
 BV BOUND     z[2,2]  
 BV BOUND     z[2,3]  
 BV BOUND     z[3,1]  
 BV BOUND     z[3,2]  
 BV BOUND     z[3,3]  
 BV BOUND     z[4,1]  
 BV BOUND     z[4,2]  
 BV BOUND     z[4,3]  
ENDATA
